67,83
75,79
1,12
64,44
63,49
61,23
3,33
54,44
44,42
18,3
41,11
97,91
84,44
7,31
8,97
17,52
94,75
34,44
88,86
82,49
28,76
73,13
58,95
69,26
71,28
88,83
90,57
48,57
51,88
84,70
59,82
2,24
11,94
75,19
59,4
24,65
80,27
100,41
26,62
91,17
